NAME : portcgen-26-26
COMMENT : portcgen N=26, seed=26
TYPE : TSP
DIMENSION : 26
EDGE_WEIGHT_TYPE : EUC_2D
NODE_COORD_SECTION
1 -162756 -53030
2 141162 -213979
3 -8004 -78133
4 -207998 324094
5 -167097 80883
6 164541 6380
7 -86428 20259
8 -323823 -97393
9 61026 213892
10 -45758 -331495
11 -266094 298767
12 -143124 -62020
13 -107937 213019
14 -152017 -258470
15 261241 -516708
16 39067 -195849
17 270713 183935
18 -167605 -299520
19 129164 35318
20 273191 -83093
21 -432698 208194
22 -111060 174647
23 349398 -493164
24 390698 214496
25 -423497 -286391
26 54060 366527
